POSCAR for Cs substituted MAPI from Scott; slightly mod by Mark for symm
 11.88654307
       1.00000000    0.00000000   -0.00315120
       0.00000000    0.99742550    0.00000000
       -0.00315120    0.00000000    1.00000000
  Cs I Pb
  1  3  1
Direct
    -0.09722000    0.00000000   -0.00366500 
    0.42680300    0.50000000   -0.02739100
    0.43586000    0.00000000   -0.49345800
    -0.03710200    0.50000000    0.44774700

