MAPbI-2x2x2-Cubic_ASE.vasp
 1.0000000000000000
    12.4600000000000009    0.0000000000000000    0.0000000000000000
     0.0000000000000008   12.4600000000000009    0.0000000000000000
     0.0000000000000008    0.0000000000000008   12.4600000000000009
   C   H   I   N  Pb
   8  48  24   8   8
Direct
  0.0006348571003556  0.4992701545306624  0.4368393212768348
  0.0002757771184338  0.9985850400037217  0.4359735826399638
  0.4994259199765169  0.5005454235545223  0.9351273140997455
  0.5001718248347755  0.9990002096479037  0.4358524726531712
  0.5014974113251564  0.0003802832431074  0.9347573808208647
  0.4997972968287375  0.4989985688748276  0.4370236045777943
  0.9993511287296203  0.4995973057435116  0.9364481557926982
  0.0001941912291862  0.9984644620829392  0.9343291189145160
  0.5334101258556544  0.4290779971919527  0.5890176832862410
  0.9246153566653431  0.5065039700703562  0.5870473021539281
  0.5835039756088555  0.9914980885471691  0.9087436473545285
  0.4527559354566673  0.9313408649130404  0.9088851333300516
  0.4655281548370278  0.0763798235633985  0.9096342640310224
  0.9647927964252679  0.5744755510184061  0.4081669847309841
  0.4227166851645542  0.0070707048881107  0.0875795762237694
  0.5323593024071670  0.9307352995578138  0.0873162133963707
  0.9510311104934746  0.4315450258991952  0.4081919352849821
  0.5456578925177828  0.0625835819957962  0.0894888998126722
  0.0327901422290286  0.4290835759900208  0.5874883306056213
  0.5832862900318851  0.9915709811908499  0.4082353331508392
  0.0455404034946087  0.5615058722034019  0.5874539597580517
  0.0818519654391715  0.4927513299308189  0.4098699483353211
  0.4237837768466389  0.0075459451736004  0.5903978583392093
  0.5325954177453396  0.9309827974640293  0.5880714299867522
  0.5450141181792181  0.0625429620829532  0.5879149030662065
  0.5831507693335329  0.4923169115890080  0.9075890045364320
  0.4535467448549964  0.4325082817193563  0.9064866431888783
  0.4653465122911473  0.5751889354215343  0.9087960941691784
  0.4240662561750965  0.5061692645208221  0.0870373184303042
  0.5317560631531614  0.4295470872932796  0.0887226759552818
  0.5448163577134518  0.5617840417701966  0.0880424253186635
  0.5818292605313318  0.4919271713589913  0.4082168864986245
  0.4529828036027819  0.4308471411306746  0.4090454765266092
  0.4652050827134990  0.5749323365561413  0.4084828278284618
  0.4230621881245089  0.5072236896831872  0.5878371835269030
  0.4518727999345474  0.9310822068235709  0.4083991070307771
  0.4656469378221255  0.0765892867120187  0.4089577063017937
  0.5429246486360172  0.5626741692656214  0.5877779431833745
  0.9649487059583859  0.0759859257073865  0.4088948997809971
  0.9224113911524232  0.0077846916712634  0.5883942536344871
  0.0320794461303529  0.9308768321812937  0.5875960160714668
  0.0439735796511997  0.0630860317861223  0.5885401577579984
  0.0436424470875153  0.0634561355634857  0.0863259681781934
  0.0316543285616136  0.9315580081737632  0.0872949460475619
  0.9236729518606306  0.0066505307464536  0.0870716743581113
  0.9650156691007331  0.0757742601963788  0.9069685006531192
  0.0826679917492646  0.9917370609949391  0.4086028702157632
  0.9510973322026315  0.9308660483937919  0.9092882413875775
  0.0832408917412999  0.4918551683757890  0.9085238903957571
  0.0448156106394980  0.5643097800170229  0.0874458890953707
  0.9519039948229118  0.4327769221432848  0.9075485127657485
  0.0318621873864151  0.4294275463328879  0.0871763357049230
  0.9231831563937599  0.5059966526949837  0.0869681819239443
  0.9526535309169309  0.9327469342850050  0.4074384289540749
  0.9649338987587498  0.5754053706636179  0.9069373876820770
  0.0825257724484423  0.9914674710109675  0.9083641631882787
  0.2504354414475008  0.9996280756879514  0.2496262201014685
  0.7496113691229003  0.7510167826237454  0.4994320469778341
  0.2501579945713235  0.2505926698073799  0.5001375347361076
  0.5003561953676935  0.7506216966720942  0.7492560750629390
  0.0012674260156560  0.2506159187232367  0.2496232147785434
  0.7508739571404233  0.5000515891003977  0.2491350362937967
  0.5005507706182781  0.7487056854966376  0.2496212424833151
  0.7500657095821720  0.7518576714018247  0.9985013923012908
  0.9999071843640543  0.2497583437435078  0.7488133852404757
  0.2512223353582729  0.2498120759432397  0.9998120891196235
  0.2494222759162162  0.9996303059623116  0.7508484127016204
  0.7499522268410419  0.4973986618458514  0.7491778590358473
  0.9998456172032254  0.7502420123132694  0.7499721414368338
  0.2499787208062206  0.7500483388522803  0.5019769198334553
  0.2490620561495830  0.5009171932700762  0.7506034775543233
  0.7487842317618895  0.9996416412904759  0.7506873184545133
  0.5003798054771859  0.2499415498293284  0.7493203902744234
  0.7503872170266800  0.2498206558705250  0.5005730341044078
  0.7489402434886964  0.2504188937123731  0.0002383504600587
  0.5002010376005986  0.2502780483222287  0.2494542337708038
  0.2506596328285516  0.7500698612104640  0.9997600262034785
  0.7501863994359238  0.0002352106527277  0.2494266842551955
  0.0000736442829338  0.7484048403574632  0.2498236983243680
  0.2502866072002502  0.5011861107903223  0.2495840527943229
  0.5001597589852115  0.4995182850103059  0.5571225538402810
  0.9991474288011829  0.5003800902332546  0.5563286322357675
  0.0002376567231658  0.5002095146646709  0.0570706368030838
  0.9995630957267053  0.0000890229451925  0.0561427820405921
  0.4993639480429914  0.4999079161785980  0.0574718196460517
  0.4998030592969480  0.9993950753095044  0.0563526368943615
  0.9996154299856780  0.9998509960058878  0.5561786236163676
  0.4988943263499542  0.9992473314286395  0.5574798838420616
  0.7517031751179877  0.7508286238046158  0.7487806019534879
  0.2501676272833104  0.2484272310402249  0.7489340400891666
  0.7502085736711466  0.2506274661892274  0.2490072626718475
  0.2499712471596229  0.7512557332711187  0.2478974758394143
  0.7505021407285434  0.2493120725871459  0.7491405357158419
  0.2502067017582045  0.7499402520740239  0.7484600552044151
  0.7493797550445125  0.7498099369127288  0.2496104626421917
  0.2503986469927859  0.2498890334661548  0.2505198142360359
